NAME : practice
COMMENT : none
TYPE : text
DIMENSION: 12
EDGE_WEIGHT_TYPE : huh?
NODE_COORD_SECTION
  1 22.1        40.23
  2 37          56.2
  3 -19        -32.36
  4 10.6        25
  5 77.9        10.11
  6 12.69      -27.3
  7 32.5        30
  8 -48.6       58.81
  9 50.7        12.0
  10 -39.3     -25.1
  11 -80.9     -95
  12 54        -13
EOF